40
1 0 5
2 1 10
3 1 1
4 0 8
4 1 7
4 2 10
4 3 1
5 2 10
5 4 9
7 5 2
8 0 1
8 2 6
8 4 3
8 5 1
8 7 7
9 3 2
9 5 1
9 6 1
9 7 5
9 8 5
10 0 10
10 7 3
11 1 1
11 6 4
11 7 5
11 9 10
12 2 8
12 5 5
12 7 7
12 8 5
12 9 9
12 11 3
13 0 4
13 2 5
13 3 3
13 4 4
13 5 8
13 7 7
13 9 5
14 1 5
14 2 9
14 5 3
14 6 9
15 3 2
15 5 1
15 7 8
15 9 6
15 11 6
15 12 8
15 13 4
15 14 4
16 2 2
16 12 10
16 15 4
17 3 10
17 8 9
17 9 10
17 10 8
17 13 6
17 14 3
17 15 3
17 16 10
18 0 1
18 2 8
18 4 4
18 5 9
18 9 9
18 11 8
18 13 7
18 15 5
19 0 10
19 1 10
19 2 8
19 5 2
19 7 7
19 8 4
19 9 10
19 10 4
19 11 8
19 12 7
19 13 4
19 14 10
19 15 4
19 16 4
20 2 4
20 4 1
20 8 5
20 10 9
20 13 2
20 14 8
20 15 10
20 16 3
20 19 5
21 0 4
21 2 9
21 3 3
21 5 1
21 7 4
21 9 7
21 10 7
21 12 5
21 13 10
21 15 10
21 16 10
21 17 3
22 0 10
22 2 4
22 3 5
22 4 1
22 5 1
22 6 6
22 10 7
22 14 4
22 20 2
22 21 1
23 0 2
23 3 7
23 4 10
23 5 4
23 10 5
23 11 1
23 13 2
23 14 6
23 15 2
23 16 9
23 17 8
24 0 9
24 3 1
24 4 2
24 9 10
24 12 8
24 16 3
24 17 6
24 20 5
24 21 9
25 0 9
25 2 4
25 3 6
25 4 4
25 8 4
25 10 5
25 11 7
25 14 4
25 18 5
25 20 1
25 23 1
26 1 9
26 10 9
26 11 1
26 16 1
26 18 10
26 19 4
26 20 7
26 23 1
26 24 10
27 0 6
27 7 5
27 21 8
27 23 6
27 25 2
28 0 5
28 1 4
28 2 3
28 4 3
28 8 4
28 9 3
28 11 4
28 13 9
28 14 7
28 15 9
28 19 10
28 21 4
28 22 7
28 23 1
28 26 4
29 0 4
29 1 7
29 2 4
29 3 5
29 5 5
29 6 2
29 7 10
29 8 4
29 10 10
29 11 7
29 12 1
29 14 3
29 15 1
29 16 8
29 17 7
29 19 8
29 20 9
29 23 8
29 24 1
29 26 2
29 28 10
30 0 5
30 1 2
30 4 6
30 7 10
30 9 6
30 13 6
30 15 8
30 17 1
30 20 8
30 29 2
31 0 10
31 3 9
31 6 3
31 7 6
31 8 3
31 11 8
31 12 8
31 13 3
31 17 1
31 20 9
31 22 6
31 28 3
32 0 8
32 1 10
32 4 9
32 5 9
32 8 6
32 11 1
32 13 10
32 20 9
32 24 7
32 25 3
32 30 3
32 31 1
33 0 9
33 3 4
33 4 9
33 6 8
33 11 4
33 12 5
33 13 8
33 14 5
33 15 3
33 18 4
33 19 1
33 20 2
33 22 5
33 24 9
33 26 5
33 27 6
33 28 4
34 0 3
34 2 3
34 3 3
34 6 3
34 10 2
34 11 2
34 14 5
34 19 4
34 21 8
34 23 2
34 24 2
34 27 4
34 28 9
34 31 4
34 32 6
34 33 1
35 0 10
35 4 8
35 8 8
35 9 10
35 10 7
35 11 9
35 13 5
35 16 5
35 18 8
35 23 10
35 26 4
35 28 7
35 32 10
36 0 2
36 1 9
36 2 4
36 4 4
36 7 5
36 8 2
36 11 1
36 13 6
36 14 6
36 16 4
36 20 4
36 22 9
36 23 9
36 26 8
36 27 6
36 30 10
36 33 1
36 35 8
37 0 6
37 8 10
37 9 2
37 11 2
37 13 2
37 15 2
37 17 7
37 18 5
37 20 9
37 22 10
37 26 8
37 27 2
37 29 3
37 30 10
37 32 1
38 1 2
38 2 9
38 4 10
38 5 10
38 6 7
38 7 10
38 10 10
38 11 8
38 14 8
38 17 10
38 18 2
38 19 6
38 22 10
38 23 3
38 26 5
38 35 8
38 37 1
39 0 7
39 5 10
39 7 6
39 8 1
39 9 9
39 14 4
39 15 5
39 16 2
39 18 6
39 21 1
39 22 4
39 24 8
39 26 2
39 28 2
39 34 2
39 37 5
39 38 10
